<number of tasks>
100

<cycle time>
1000

<order strength>
0.596


<task times>
1 176
2 158
3 176
4 238
5 130
6 194
7 154
8 69
9 244
10 175
11 92
12 176
13 256
14 111
15 191
16 46
17 77
18 135
19 97
20 40
21 210
22 136
23 126
24 124
25 231
26 86
27 79
28 355
29 151
30 30
31 176
32 56
33 152
34 93
35 177
36 93
37 104
38 60
39 30
40 211
41 117
42 122
43 61
44 39
45 127
46 255
47 287
48 285
49 78
50 21
51 250
52 157
53 253
54 192
55 200
56 210
57 61
58 193
59 80
60 107
61 245
62 146
63 242
64 195
65 28
66 33
67 264
68 206
69 80
70 71
71 142
72 136
73 148
74 113
75 131
76 64
77 433
78 31
79 104
80 149
81 40
82 118
83 121
84 164
85 31
86 96
87 222
88 152
89 224
90 97
91 78
92 171
93 252
94 118
95 43
96 231
97 239
98 110
99 54
100 137

<precedence relations>
1,10
2,11
3,69
3,75
4,13
5,13
6,12
7,12
8,12
9,13
10,15
11,14
12,16
12,17
12,19
13,17
13,18
13,19
14,20
15,23
16,21
17,22
17,23
17,24
17,25
18,23
18,26
19,35
19,68
20,27
21,29
22,28
23,31
23,32
23,43
24,62
24,94
25,30
26,30
27,33
28,34
29,33
29,54
30,33
30,36
31,33
31,34
31,35
31,41
32,37
32,42
32,61
33,42
33,61
34,39
34,47
35,38
35,40
35,55
35,74
36,39
36,41
36,43
37,100
38,45
39,44
39,46
40,79
41,62
42,47
42,48
43,64
43,74
44,49
45,52
46,50
46,54
47,51
47,53
47,55
48,53
49,56
50,58
51,59
52,60
53,57
53,62
54,61
54,80
56,64
57,63
58,64
59,64
60,64
62,65
63,68
64,66
64,67
64,69
64,70
66,71
67,72
68,74
68,75
69,73
69,85
70,75
71,79
72,76
73,78
74,77
74,79
75,80
76,82
77,83
78,81
80,84
80,85
80,86
80,87
80,88
81,89
82,90
83,91
84,92
85,96
87,93
87,95
87,96
88,94
88,97
88,100
89,100
90,98
91,99
92,100
93,100

<end>
